56840
38, 35, 5, 37, 51, 13, 41, 32, 24, 50, 20, 7, 40, 43, 3, 28, 6, 55, 26, 49, 21, 29, 22, 10, 16, 39, 46, 36, 15, 52, 25, 11, 31, 27, 1, 33, 42, 45, 14, 2, 9, 12, 4, 18, 30, 47, 54, 34, 53, 23, 17, 48, 19, 44, 8
